(set-info :source |printed by MathSAT|)
(declare-fun |!{$(in_main#0)<a5.2>}| () (Array Int Int))
(declare-fun |!{$(in_main#0)<a5.2>}.next| () (Array Int Int))
(declare-fun |!{$(in_main#0)<a2.3>}| () (Array Int Int))
(declare-fun |!{$(in_main#0)<a2.3>}.next| () (Array Int Int))
(declare-fun |!{$(in_main#0)<a3.4>}| () (Array Int Int))
(declare-fun |!{$(in_main#0)<a3.4>}.next| () (Array Int Int))
(declare-fun |!{$(in_main#0)<a4.5>}| () (Array Int Int))
(declare-fun |!{$(in_main#0)<a4.5>}.next| () (Array Int Int))
(declare-fun |!{$(in_main#0)<a6.6>}| () (Array Int Int))
(declare-fun |!{$(in_main#0)<a6.6>}.next| () (Array Int Int))
(declare-fun |!{$(in_main#0)<N>}| () Int)
(declare-fun |!{$(in_main#0)<N>}.next| () Int)
(declare-fun |!{$(in_main#0)<a>}| () Int)
(declare-fun |!{$(in_main#0)<a>}.next| () Int)
(declare-fun |!{$(in_main#0)<i>}| () Int)
(declare-fun |!{$(in_main#0)<i>}.next| () Int)
(declare-fun |!{$(in_main#0)<x>}| () Int)
(declare-fun |!{$(in_main#0)<x>}.next| () Int)
(declare-fun |!{$(in_main#0)<a1.1>}| () (Array Int Int))
(declare-fun |!{$(in_main#0)<a1.1>}.next| () (Array Int Int))
(declare-fun |!{$(in_main#0)<$(in___VERIFIER_nondet_int#0)<h#<__VERIFIER_nondet_int.return>>>}| () Int)
(declare-fun |!{$(in_main#0)<$(in___VERIFIER_nondet_int#1)<h#<__VERIFIER_nondet_int.return>>>}| () Int)
(declare-fun |!{$(in_main#0)<$(in___VERIFIER_nondet_int#2)<h#<__VERIFIER_nondet_int.return>>>}| () Int)
(declare-fun !pc () Int)
(declare-fun !pc.next () Int)
(declare-fun |%{$(in_main#0)<i>}#1| () Int)
(declare-fun |%{$(in_main#0)<x>}#1| () Int)
(declare-fun |%{$(in_main#0)<a1.1>}#1| () (Array Int Int))
(declare-fun |%{$(in_main#0)<a5.2>}#1| () (Array Int Int))
(declare-fun |%{$(in_main#0)<a2.3>}#1| () (Array Int Int))
(declare-fun |%{$(in_main#0)<a3.4>}#1| () (Array Int Int))
(declare-fun |%{$(in_main#0)<a4.5>}#1| () (Array Int Int))
(declare-fun |%{$(in_main#0)<a6.6>}#1| () (Array Int Int))
(define-fun .def_49 () Int (! !pc :next !pc.next))
(define-fun .def_52 () Bool (! (= .def_49 2) :init true))
(define-fun .def_303 () Bool (= .def_49 37))
(define-fun .def_275 () Bool (= !pc.next 66))
(define-fun .def_306 () Bool (and .def_275 .def_303))
(define-fun .def_20 () Int (! |!{$(in_main#0)<a>}| :next |!{$(in_main#0)<a>}.next|))
(define-fun .def_18 () Int (! |!{$(in_main#0)<N>}| :next |!{$(in_main#0)<N>}.next|))
(define-fun .def_282 () Bool (<= .def_18 .def_20))
(define-fun .def_205 () Bool (= |!{$(in_main#0)<i>}.next| 0))
(define-fun .def_10 () (Array Int Int) (! |!{$(in_main#0)<a2.3>}| :next |!{$(in_main#0)<a2.3>}.next|))
(define-fun .def_105 () Bool (= .def_10 |!{$(in_main#0)<a2.3>}.next|))
(define-fun .def_8 () (Array Int Int) (! |!{$(in_main#0)<a5.2>}| :next |!{$(in_main#0)<a5.2>}.next|))
(define-fun .def_103 () Bool (= .def_8 |!{$(in_main#0)<a5.2>}.next|))
(define-fun .def_124 () Bool (and .def_103 .def_105))
(define-fun .def_12 () (Array Int Int) (! |!{$(in_main#0)<a3.4>}| :next |!{$(in_main#0)<a3.4>}.next|))
(define-fun .def_107 () Bool (= .def_12 |!{$(in_main#0)<a3.4>}.next|))
(define-fun .def_125 () Bool (and .def_107 .def_124))
(define-fun .def_14 () (Array Int Int) (! |!{$(in_main#0)<a4.5>}| :next |!{$(in_main#0)<a4.5>}.next|))
(define-fun .def_109 () Bool (= .def_14 |!{$(in_main#0)<a4.5>}.next|))
(define-fun .def_126 () Bool (and .def_109 .def_125))
(define-fun .def_16 () (Array Int Int) (! |!{$(in_main#0)<a6.6>}| :next |!{$(in_main#0)<a6.6>}.next|))
(define-fun .def_111 () Bool (= .def_16 |!{$(in_main#0)<a6.6>}.next|))
(define-fun .def_127 () Bool (and .def_111 .def_126))
(define-fun .def_113 () Bool (= .def_18 |!{$(in_main#0)<N>}.next|))
(define-fun .def_128 () Bool (and .def_113 .def_127))
(define-fun .def_115 () Bool (= .def_20 |!{$(in_main#0)<a>}.next|))
(define-fun .def_129 () Bool (and .def_115 .def_128))
(define-fun .def_206 () Bool (and .def_129 .def_205))
(define-fun .def_24 () Int (! |!{$(in_main#0)<x>}| :next |!{$(in_main#0)<x>}.next|))
(define-fun .def_119 () Bool (= .def_24 |!{$(in_main#0)<x>}.next|))
(define-fun .def_207 () Bool (and .def_119 .def_206))
(define-fun .def_26 () (Array Int Int) (! |!{$(in_main#0)<a1.1>}| :next |!{$(in_main#0)<a1.1>}.next|))
(define-fun .def_121 () Bool (= .def_26 |!{$(in_main#0)<a1.1>}.next|))
(define-fun .def_208 () Bool (and .def_121 .def_207))
(define-fun .def_302 () Bool (and .def_208 .def_282))
(define-fun .def_307 () Bool (and .def_302 .def_306))
(define-fun .def_89 () Bool (= !pc.next 37))
(define-fun .def_304 () Bool (and .def_89 .def_303))
(define-fun .def_284 () (Array Int Int) (store .def_26 .def_20 |!{$(in_main#0)<$(in___VERIFIER_nondet_int#1)<h#<__VERIFIER_nondet_int.return>>>}|))
(define-fun .def_299 () Bool (= |!{$(in_main#0)<a1.1>}.next| .def_284))
(define-fun .def_293 () Int (* (- 1) |!{$(in_main#0)<a>}.next|))
(define-fun .def_294 () Int (+ .def_20 .def_293))
(define-fun .def_295 () Bool (= .def_294 (- 1)))
(define-fun .def_285 () (Array Int Int) (store .def_8 .def_20 |!{$(in_main#0)<$(in___VERIFIER_nondet_int#2)<h#<__VERIFIER_nondet_int.return>>>}|))
(define-fun .def_287 () Bool (= |!{$(in_main#0)<a5.2>}.next| .def_285))
(define-fun .def_288 () Bool (and .def_105 .def_287))
(define-fun .def_289 () Bool (and .def_107 .def_288))
(define-fun .def_290 () Bool (and .def_109 .def_289))
(define-fun .def_291 () Bool (and .def_111 .def_290))
(define-fun .def_292 () Bool (and .def_113 .def_291))
(define-fun .def_296 () Bool (and .def_292 .def_295))
(define-fun .def_22 () Int (! |!{$(in_main#0)<i>}| :next |!{$(in_main#0)<i>}.next|))
(define-fun .def_117 () Bool (= .def_22 |!{$(in_main#0)<i>}.next|))
(define-fun .def_297 () Bool (and .def_117 .def_296))
(define-fun .def_298 () Bool (and .def_119 .def_297))
(define-fun .def_300 () Bool (and .def_298 .def_299))
(define-fun .def_283 () Bool (not .def_282))
(define-fun .def_301 () Bool (and .def_283 .def_300))
(define-fun .def_305 () Bool (and .def_301 .def_304))
(define-fun .def_308 () Bool (or .def_305 .def_307))
(define-fun .def_274 () Bool (= .def_49 66))
(define-fun .def_253 () Bool (= !pc.next 80))
(define-fun .def_278 () Bool (and .def_253 .def_274))
(define-fun .def_166 () Bool (<= .def_18 .def_22))
(define-fun .def_209 () Bool (and .def_166 .def_208))
(define-fun .def_279 () Bool (and .def_209 .def_278))
(define-fun .def_276 () Bool (and .def_274 .def_275))
(define-fun .def_260 () Int (select .def_26 .def_22))
(define-fun .def_261 () (Array Int Int) (store .def_10 .def_22 .def_260))
(define-fun .def_262 () Bool (= |!{$(in_main#0)<a2.3>}.next| .def_261))
(define-fun .def_263 () Bool (and .def_103 .def_262))
(define-fun .def_264 () Bool (and .def_107 .def_263))
(define-fun .def_265 () Bool (and .def_109 .def_264))
(define-fun .def_266 () Bool (and .def_111 .def_265))
(define-fun .def_267 () Bool (and .def_113 .def_266))
(define-fun .def_268 () Bool (and .def_115 .def_267))
(define-fun .def_175 () Int (* (- 1) |!{$(in_main#0)<i>}.next|))
(define-fun .def_176 () Int (+ .def_22 .def_175))
(define-fun .def_177 () Bool (= .def_176 (- 1)))
(define-fun .def_269 () Bool (and .def_177 .def_268))
(define-fun .def_270 () Bool (and .def_119 .def_269))
(define-fun .def_271 () Bool (and .def_121 .def_270))
(define-fun .def_167 () Bool (not .def_166))
(define-fun .def_272 () Bool (and .def_167 .def_271))
(define-fun .def_277 () Bool (and .def_272 .def_276))
(define-fun .def_280 () Bool (or .def_277 .def_279))
(define-fun .def_252 () Bool (= .def_49 80))
(define-fun .def_232 () Bool (= !pc.next 94))
(define-fun .def_256 () Bool (and .def_232 .def_252))
(define-fun .def_257 () Bool (and .def_209 .def_256))
(define-fun .def_254 () Bool (and .def_252 .def_253))
(define-fun .def_239 () Int (select .def_10 .def_22))
(define-fun .def_240 () (Array Int Int) (store .def_12 .def_22 .def_239))
(define-fun .def_241 () Bool (= |!{$(in_main#0)<a3.4>}.next| .def_240))
(define-fun .def_242 () Bool (and .def_124 .def_241))
(define-fun .def_243 () Bool (and .def_109 .def_242))
(define-fun .def_244 () Bool (and .def_111 .def_243))
(define-fun .def_245 () Bool (and .def_113 .def_244))
(define-fun .def_246 () Bool (and .def_115 .def_245))
(define-fun .def_247 () Bool (and .def_177 .def_246))
(define-fun .def_248 () Bool (and .def_119 .def_247))
(define-fun .def_249 () Bool (and .def_121 .def_248))
(define-fun .def_250 () Bool (and .def_167 .def_249))
(define-fun .def_255 () Bool (and .def_250 .def_254))
(define-fun .def_258 () Bool (or .def_255 .def_257))
(define-fun .def_231 () Bool (= .def_49 94))
(define-fun .def_212 () Bool (= !pc.next 108))
(define-fun .def_235 () Bool (and .def_212 .def_231))
(define-fun .def_236 () Bool (and .def_209 .def_235))
(define-fun .def_233 () Bool (and .def_231 .def_232))
(define-fun .def_219 () Int (select .def_12 .def_22))
(define-fun .def_220 () (Array Int Int) (store .def_14 .def_22 .def_219))
(define-fun .def_221 () Bool (= |!{$(in_main#0)<a4.5>}.next| .def_220))
(define-fun .def_222 () Bool (and .def_125 .def_221))
(define-fun .def_223 () Bool (and .def_111 .def_222))
(define-fun .def_224 () Bool (and .def_113 .def_223))
(define-fun .def_225 () Bool (and .def_115 .def_224))
(define-fun .def_226 () Bool (and .def_177 .def_225))
(define-fun .def_227 () Bool (and .def_119 .def_226))
(define-fun .def_228 () Bool (and .def_121 .def_227))
(define-fun .def_229 () Bool (and .def_167 .def_228))
(define-fun .def_234 () Bool (and .def_229 .def_233))
(define-fun .def_237 () Bool (or .def_234 .def_236))
(define-fun .def_211 () Bool (= .def_49 108))
(define-fun .def_188 () Bool (= !pc.next 122))
(define-fun .def_215 () Bool (and .def_188 .def_211))
(define-fun .def_216 () Bool (and .def_209 .def_215))
(define-fun .def_213 () Bool (and .def_211 .def_212))
(define-fun .def_195 () Int (select .def_14 .def_22))
(define-fun .def_196 () (Array Int Int) (store .def_16 .def_22 .def_195))
(define-fun .def_197 () Bool (= |!{$(in_main#0)<a6.6>}.next| .def_196))
(define-fun .def_198 () Bool (and .def_126 .def_197))
(define-fun .def_199 () Bool (and .def_113 .def_198))
(define-fun .def_200 () Bool (and .def_115 .def_199))
(define-fun .def_201 () Bool (and .def_177 .def_200))
(define-fun .def_202 () Bool (and .def_119 .def_201))
(define-fun .def_203 () Bool (and .def_121 .def_202))
(define-fun .def_204 () Bool (and .def_167 .def_203))
(define-fun .def_214 () Bool (and .def_204 .def_213))
(define-fun .def_217 () Bool (or .def_214 .def_216))
(define-fun .def_187 () Bool (= .def_49 122))
(define-fun .def_155 () Bool (= !pc.next 136))
(define-fun .def_191 () Bool (and .def_155 .def_187))
(define-fun .def_182 () Bool (= |!{$(in_main#0)<x>}.next| 0))
(define-fun .def_130 () Bool (and .def_117 .def_129))
(define-fun .def_183 () Bool (and .def_130 .def_182))
(define-fun .def_184 () Bool (and .def_121 .def_183))
(define-fun .def_185 () Bool (and .def_166 .def_184))
(define-fun .def_192 () Bool (and .def_185 .def_191))
(define-fun .def_189 () Bool (and .def_187 .def_188))
(define-fun .def_168 () Int (select .def_8 .def_22))
(define-fun .def_169 () (Array Int Int) (store .def_16 .def_22 .def_168))
(define-fun .def_171 () Bool (= |!{$(in_main#0)<a6.6>}.next| .def_169))
(define-fun .def_172 () Bool (and .def_126 .def_171))
(define-fun .def_173 () Bool (and .def_113 .def_172))
(define-fun .def_174 () Bool (and .def_115 .def_173))
(define-fun .def_178 () Bool (and .def_174 .def_177))
(define-fun .def_179 () Bool (and .def_119 .def_178))
(define-fun .def_180 () Bool (and .def_121 .def_179))
(define-fun .def_181 () Bool (and .def_167 .def_180))
(define-fun .def_190 () Bool (and .def_181 .def_189))
(define-fun .def_193 () Bool (or .def_190 .def_192))
(define-fun .def_159 () Bool (= !pc.next 0))
(define-fun .def_150 () Bool (= .def_49 136))
(define-fun .def_160 () Bool (and .def_150 .def_159))
(define-fun .def_92 () Bool (<= .def_18 .def_24))
(define-fun .def_139 () Bool (and .def_92 .def_103))
(define-fun .def_140 () Bool (and .def_105 .def_139))
(define-fun .def_141 () Bool (and .def_107 .def_140))
(define-fun .def_142 () Bool (and .def_109 .def_141))
(define-fun .def_143 () Bool (and .def_111 .def_142))
(define-fun .def_144 () Bool (and .def_113 .def_143))
(define-fun .def_145 () Bool (and .def_115 .def_144))
(define-fun .def_146 () Bool (and .def_117 .def_145))
(define-fun .def_147 () Bool (and .def_119 .def_146))
(define-fun .def_148 () Bool (and .def_121 .def_147))
(define-fun .def_161 () Bool (and .def_148 .def_160))
(define-fun .def_156 () Bool (and .def_150 .def_155))
(define-fun .def_132 () Int (* (- 1) |!{$(in_main#0)<x>}.next|))
(define-fun .def_133 () Int (+ .def_24 .def_132))
(define-fun .def_134 () Bool (= .def_133 (- 1)))
(define-fun .def_135 () Bool (and .def_130 .def_134))
(define-fun .def_136 () Bool (and .def_121 .def_135))
(define-fun .def_95 () Int (select .def_16 .def_24))
(define-fun .def_94 () Int (select .def_26 .def_24))
(define-fun .def_96 () Bool (= .def_94 .def_95))
(define-fun .def_97 () Int (ite .def_96 1 0))
(define-fun .def_98 () Bool (= .def_97 0))
(define-fun .def_99 () Bool (not .def_98))
(define-fun .def_137 () Bool (and .def_99 .def_136))
(define-fun .def_93 () Bool (not .def_92))
(define-fun .def_138 () Bool (and .def_93 .def_137))
(define-fun .def_157 () Bool (and .def_138 .def_156))
(define-fun .def_152 () Bool (= !pc.next 156))
(define-fun .def_153 () Bool (and .def_150 .def_152))
(define-fun .def_104 () Bool (and .def_98 .def_103))
(define-fun .def_106 () Bool (and .def_104 .def_105))
(define-fun .def_108 () Bool (and .def_106 .def_107))
(define-fun .def_110 () Bool (and .def_108 .def_109))
(define-fun .def_112 () Bool (and .def_110 .def_111))
(define-fun .def_114 () Bool (and .def_112 .def_113))
(define-fun .def_116 () Bool (and .def_114 .def_115))
(define-fun .def_118 () Bool (and .def_116 .def_117))
(define-fun .def_120 () Bool (and .def_118 .def_119))
(define-fun .def_122 () Bool (and .def_120 .def_121))
(define-fun .def_123 () Bool (and .def_93 .def_122))
(define-fun .def_154 () Bool (and .def_123 .def_153))
(define-fun .def_158 () Bool (or .def_154 .def_157))
(define-fun .def_162 () Bool (or .def_158 .def_161))
(define-fun .def_90 () Bool (and .def_52 .def_89))
(define-fun .def_86 () Bool (= |!{$(in_main#0)<a1.1>}.next| |%{$(in_main#0)<a1.1>}#1|))
(define-fun .def_84 () Bool (= |!{$(in_main#0)<x>}.next| |%{$(in_main#0)<x>}#1|))
(define-fun .def_82 () Bool (= |!{$(in_main#0)<i>}.next| |%{$(in_main#0)<i>}#1|))
(define-fun .def_80 () Bool (= |!{$(in_main#0)<a>}.next| 0))
(define-fun .def_78 () Bool (= |!{$(in_main#0)<N>}.next| |!{$(in_main#0)<$(in___VERIFIER_nondet_int#0)<h#<__VERIFIER_nondet_int.return>>>}|))
(define-fun .def_76 () Bool (= |!{$(in_main#0)<a6.6>}.next| |%{$(in_main#0)<a6.6>}#1|))
(define-fun .def_74 () Bool (= |!{$(in_main#0)<a4.5>}.next| |%{$(in_main#0)<a4.5>}#1|))
(define-fun .def_72 () Bool (= |!{$(in_main#0)<a3.4>}.next| |%{$(in_main#0)<a3.4>}#1|))
(define-fun .def_70 () Bool (= |!{$(in_main#0)<a2.3>}.next| |%{$(in_main#0)<a2.3>}#1|))
(define-fun .def_69 () Bool (= |!{$(in_main#0)<a5.2>}.next| |%{$(in_main#0)<a5.2>}#1|))
(define-fun .def_71 () Bool (and .def_69 .def_70))
(define-fun .def_73 () Bool (and .def_71 .def_72))
(define-fun .def_75 () Bool (and .def_73 .def_74))
(define-fun .def_77 () Bool (and .def_75 .def_76))
(define-fun .def_79 () Bool (and .def_77 .def_78))
(define-fun .def_81 () Bool (and .def_79 .def_80))
(define-fun .def_83 () Bool (and .def_81 .def_82))
(define-fun .def_85 () Bool (and .def_83 .def_84))
(define-fun .def_87 () Bool (and .def_85 .def_86))
(define-fun .def_91 () Bool (and .def_87 .def_90))
(define-fun .def_163 () Bool (or .def_91 .def_162))
(define-fun .def_194 () Bool (or .def_163 .def_193))
(define-fun .def_218 () Bool (or .def_194 .def_217))
(define-fun .def_238 () Bool (or .def_218 .def_237))
(define-fun .def_259 () Bool (or .def_238 .def_258))
(define-fun .def_281 () Bool (or .def_259 .def_280))
(define-fun .def_309 () Bool (! (or .def_281 .def_308) :trans true))
(define-fun .def_164 () Bool (= .def_49 156))
(define-fun .def_310 () Bool (! (not .def_164) :invar-property 0 :invar-property-name ||))
(assert true)
